NAME 
ROWS
 N  OBJ
 L  R0      
 E  R1      
 E  R2      
 E  R3      
 E  R4      
 E  R5      
 E  R6      
 E  R7      
 E  R8      
 E  R9      
 E  R10     
 E  R11     
 E  R12     
 E  R13     
 E  R14     
 E  R15     
 E  R16     
 E  R17     
 E  R18     
 E  R19     
 E  R20     
 E  R21     
 E  R22     
 E  R23     
 E  R24     
 E  R25     
 E  R26     
 E  R27     
 E  R28     
 E  R29     
 E  R30     
COLUMNS
    MARKER    'MARKER'                 'INTORG'
    I0(3)     OBJ       -182
    I0(3)     R0        -15
    I0(3)     R1        16
    I0(3)     R30       1
    I1(3)     OBJ       -176
    I1(3)     R0        27
    I1(3)     R2        17
    I1(3)     R30       1
    I2(3)     OBJ       -119
    I2(3)     R0        -76
    I2(3)     R3        3
    I2(3)     R30       1
    I3(3)     OBJ       193
    I3(3)     R0        22
    I3(3)     R4        16
    I3(3)     R30       1
    I4(3)     OBJ       -85
    I4(3)     R0        -37
    I4(3)     R5        14
    I4(3)     R30       1
    I5(3)     OBJ       67
    I5(3)     R0        -56
    I5(3)     R6        8
    I5(3)     R30       1
    I6(3)     OBJ       -142
    I6(3)     R0        45
    I6(3)     R7        14
    I6(3)     R30       1
    I7(3)     OBJ       -19
    I7(3)     R0        -107
    I7(3)     R8        19
    I7(3)     R30       1
    I8(3)     OBJ       -183
    I8(3)     R0        -127
    I8(3)     R9        7
    I8(3)     R30       1
    I9(3)     OBJ       156
    I9(3)     R0        46
    I9(3)     R10       7
    I9(3)     R30       1
    I10(3)    OBJ       -103
    I10(3)    R0        -166
    I10(3)    R11       17
    I10(3)    R30       1
    I11(3)    OBJ       -107
    I11(3)    R0        25
    I11(3)    R12       1
    I11(3)    R30       1
    I12(3)    OBJ       -127
    I12(3)    R0        -165
    I12(3)    R13       12
    I12(3)    R30       1
    I13(3)    OBJ       -85
    I13(3)    R0        184
    I13(3)    R14       19
    I13(3)    R30       1
    I14(3)    OBJ       45
    I14(3)    R0        -67
    I14(3)    R15       5
    I14(3)    R30       1
    I15(3)    OBJ       -7
    I15(3)    R0        -1
    I15(3)    R16       11
    I15(3)    R30       1
    I16(3)    OBJ       56
    I16(3)    R0        -49
    I16(3)    R17       19
    I16(3)    R30       1
    I17(3)    OBJ       194
    I17(3)    R0        -149
    I17(3)    R18       1
    I17(3)    R30       1
    I18(3)    OBJ       139
    I18(3)    R0        3
    I18(3)    R19       19
    I18(3)    R30       1
    I19(3)    OBJ       86
    I19(3)    R0        39
    I19(3)    R20       14
    I19(3)    R30       1
    I20(3)    OBJ       -179
    I20(3)    R0        77
    I20(3)    R21       16
    I20(3)    R30       1
    I21(3)    OBJ       -94
    I21(3)    R0        -13
    I21(3)    R22       19
    I21(3)    R30       1
    I22(3)    OBJ       192
    I22(3)    R0        -85
    I22(3)    R23       15
    I22(3)    R30       1
    I23(3)    OBJ       134
    I23(3)    R0        -68
    I23(3)    R24       8
    I23(3)    R30       1
    I24(3)    OBJ       -72
    I24(3)    R0        -192
    I24(3)    R25       2
    I24(3)    R30       1
    I25(3)    OBJ       -59
    I25(3)    R0        -120
    I25(3)    R26       19
    I25(3)    R30       1
    I26(3)    OBJ       -71
    I26(3)    R0        -3
    I26(3)    R27       8
    I26(3)    R30       1
    MARKER    'MARKER'                 'INTEND'
    C27(29)   OBJ       2
    C27(29)   R0        8
    C27(29)   R1        -1
    C27(29)   R2        3
    C27(29)   R3        14
    C27(29)   R4        9
    C27(29)   R5        2
    C27(29)   R6        1
    C27(29)   R7        5
    C27(29)   R8        4
    C27(29)   R9        19
    C27(29)   R10       10
    C27(29)   R11       12
    C27(29)   R12       3
    C27(29)   R13       16
    C27(29)   R14       17
    C27(29)   R15       9
    C27(29)   R16       17
    C27(29)   R17       13
    C27(29)   R18       4
    C27(29)   R19       8
    C27(29)   R20       2
    C27(29)   R21       9
    C27(29)   R22       10
    C27(29)   R23       18
    C27(29)   R24       17
    C27(29)   R25       18
    C27(29)   R26       8
    C27(29)   R27       9
    C27(29)   R29       15
    C28(28)   OBJ       7
    C28(28)   R0        3
    C28(28)   R1        2
    C28(28)   R2        9
    C28(28)   R3        3
    C28(28)   R4        1
    C28(28)   R5        18
    C28(28)   R6        18
    C28(28)   R7        6
    C28(28)   R8        19
    C28(28)   R10       1
    C28(28)   R11       10
    C28(28)   R12       16
    C28(28)   R13       18
    C28(28)   R14       12
    C28(28)   R15       14
    C28(28)   R16       9
    C28(28)   R17       16
    C28(28)   R18       6
    C28(28)   R19       8
    C28(28)   R20       18
    C28(28)   R21       16
    C28(28)   R22       10
    C28(28)   R23       7
    C28(28)   R24       11
    C28(28)   R25       19
    C28(28)   R27       16
    C28(28)   R28       16
    C28(28)   R29       10
    C29(28)   OBJ       -9
    C29(28)   R0        9
    C29(28)   R1        7
    C29(28)   R2        1
    C29(28)   R3        2
    C29(28)   R4        1
    C29(28)   R5        9
    C29(28)   R7        16
    C29(28)   R8        19
    C29(28)   R9        13
    C29(28)   R10       1
    C29(28)   R11       5
    C29(28)   R12       1
    C29(28)   R13       16
    C29(28)   R14       3
    C29(28)   R15       15
    C29(28)   R16       3
    C29(28)   R18       9
    C29(28)   R19       6
    C29(28)   R20       2
    C29(28)   R21       6
    C29(28)   R22       9
    C29(28)   R23       11
    C29(28)   R24       17
    C29(28)   R25       6
    C29(28)   R26       9
    C29(28)   R27       18
    C29(28)   R28       7
    C29(28)   R29       12
    C30(1)    R1        1
    C31(1)    R2        1
    C32(1)    R3        1
    C33(1)    R4        1
    C34(1)    R5        1
    C35(1)    R6        1
    C36(1)    R7        1
    C37(1)    R8        1
    C38(1)    R9        1
    C39(1)    R10       1
    C40(1)    R11       1
    C41(1)    R12       1
    C42(1)    R13       1
    C43(1)    R14       1
    C44(1)    R15       1
    C45(1)    R16       1
    C46(1)    R17       1
    C47(1)    R18       1
    C48(1)    R19       1
    C49(1)    R20       1
    C50(1)    R21       1
    C51(1)    R22       1
    C52(1)    R23       1
    C53(1)    R24       1
    C54(1)    R25       1
    C55(1)    R26       1
    C56(1)    R27       1
    C57(1)    R28       1
    C58(1)    R29       1
    C59(1)    R30       1
RHS
    RHS1      R0        -353.625
    RHS1      R1        94
    RHS1      R2        78
    RHS1      R3        77
    RHS1      R4        60
    RHS1      R5        64
    RHS1      R6        61
    RHS1      R7        56
    RHS1      R8        52
    RHS1      R9        56
    RHS1      R10       80
    RHS1      R11       52
    RHS1      R12       81
    RHS1      R13       50
    RHS1      R14       71
    RHS1      R15       88
    RHS1      R16       83
    RHS1      R17       67
    RHS1      R18       50
    RHS1      R19       86
    RHS1      R20       83
    RHS1      R21       95
    RHS1      R22       53
    RHS1      R23       75
    RHS1      R24       77
    RHS1      R25       53
    RHS1      R26       71
    RHS1      R27       89
    RHS1      R28       78
    RHS1      R29       84
    RHS1      R30       9
BOUNDS
 UP BND1      I0(3)     1
 UP BND1      I1(3)     1
 UP BND1      I2(3)     1
 UP BND1      I3(3)     1
 UP BND1      I4(3)     1
 UP BND1      I5(3)     1
 UP BND1      I6(3)     1
 UP BND1      I7(3)     1
 UP BND1      I8(3)     1
 UP BND1      I9(3)     1
 UP BND1      I10(3)    1
 UP BND1      I11(3)    1
 UP BND1      I12(3)    1
 UP BND1      I13(3)    1
 UP BND1      I14(3)    1
 UP BND1      I15(3)    1
 UP BND1      I16(3)    1
 UP BND1      I17(3)    1
 UP BND1      I18(3)    1
 UP BND1      I19(3)    1
 UP BND1      I20(3)    1
 UP BND1      I21(3)    1
 UP BND1      I22(3)    1
 UP BND1      I23(3)    1
 UP BND1      I24(3)    1
 UP BND1      I25(3)    1
 UP BND1      I26(3)    1
ENDATA
